2023/11/29
gurobi is now 11.0.0
previous version was 10.0.3
solving instance knapsack 1000 2 cubic
Couenne 0.5.8 -- an Open-Source solver for Mixed Integer Nonlinear Optimization
Mailing list: couenne@list.coin-or.org
Instructions: http://www.coin-or.org/Couenne
couenne: 
ANALYSIS TEST: Reformulating problem: Couenne: new cutoff value -7.9095468206e+00 (2.25032 seconds)
2.3 seconds
NLP0012I 
              Num      Status      Obj             It       time                 Location
NLP0014I             1         OPT -13845.857       19 0.631016
Couenne: new cutoff value -1.3845856795e+04 (2.9732 seconds)
Loaded instance "/tmp/jl_xTyHm1/model.nl"
Constraints:         3001
Variables:           3000 (1000 integer)
Auxiliaries:         3002 (0 integer)

Coin0506I Presolve 11661 (-1341) rows, 4660 (-1342) columns and 27649 (-3352) elements
Clp0006I 0  Obj -140766.21 Primal inf 7827610.2 (1330)
Clp0006I 283  Obj -140766.21 Primal inf 6366225.3 (1613)
Clp0006I 566  Obj -140766.21 Primal inf 6239250.6 (1971)
Clp0006I 849  Obj -140766.21 Primal inf 6255754.2 (2359)
Clp0006I 1132  Obj -140347.28 Primal inf 6041850.9 (2655)
Clp0006I 1415  Obj -139367.68 Primal inf 5791241.8 (2792)
Clp0006I 1698  Obj -135894.84 Primal inf 4954857.8 (2652)
Clp0006I 1981  Obj -117993.44 Primal inf 3868969 (2778)
Clp0006I 2264  Obj -107478.15 Primal inf 3330749.5 (2979)
Clp0006I 2547  Obj -98949.606 Primal inf 2807787.6 (3154)
Clp0006I 2830  Obj -92825.101 Primal inf 2331198.6 (3194)
Clp0006I 3113  Obj -88091.274 Primal inf 1924782.9 (3109)
Clp0006I 3396  Obj -85851.997 Primal inf 1300257.6 (2560)
Clp0006I 3679  Obj -80533.269 Primal inf 1040270.4 (2274)
Clp0006I 3962  Obj -61868.119 Primal inf 673026.69 (2356)
Clp0006I 4245  Obj -60291.523 Primal inf 520141.76 (2119)
Clp0006I 4528  Obj -58940.527 Primal inf 469498.71 (1926)
Clp0006I 4811  Obj -57795.899 Primal inf 277270.94 (1512)
Clp0006I 5094  Obj -56720.869 Primal inf 145043.92 (997)
Clp0006I 5377  Obj -56095.688 Primal inf 116406.91 (839)
Clp0006I 5660  Obj -54974.664 Primal inf 74610.522 (643)
Clp0006I 5943  Obj -53847.951 Primal inf 92862.367 (476)
Clp0006I 6226  Obj -53184.994 Primal inf 11698.759 (259)
Clp0006I 6509  Obj -52214.966 Primal inf 40302.969 (32)
Clp0006I 6553  Obj -52116.255
Clp0000I Optimal - objective value -52116.254
Clp0032I Optimal objective -52116.25441 - 6553 iterations time 0.622, Presolve 0.05
Clp0000I Optimal - objective value -52116.254
NLP Heuristic: NLP0014I             2         OPT -32460.044      646 36.651937
no solution.
Clp0000I Optimal - objective value -52116.254
Optimality Based BT: 0 improved bounds
Probing: Couenne: new cutoff value -1.5218930656e+04 (105.892 seconds)
0 improved bounds
NLP Heuristic: no solution.
Cbc0031I 1864 added rows had average density of 2
Cbc0013I At root node, 1864 cuts changed objective from -52116.254 to -50583.315 in 20 passes
Cbc0014I Cut generator 0 (Couenne convexifier cuts) - 18706 row cuts average 2.0 elements, 17365 column cuts (19153 active)
Cbc0010I After 0 nodes, 1 on tree, 1e+50 best solution, best possible -1.7976931e+308 (375.18 seconds)
Optimality Based BT: 0 improved bounds
Optimality Based BT: 0 improved bounds
Optimality Based BT: 0 improved bounds
Optimality Based BT: 0 improved bounds
Optimality Based BT: 0 improved bounds
Cbc0010I After 100 nodes, 50 on tree, 1e+50 best solution, best possible -50557.647 (2518.86 seconds)
Cbc0010I After 200 nodes, 100 on tree, 1e+50 best solution, best possible -50557.647 (2565.06 seconds)
Cbc0010I After 300 nodes, 150 on tree, 1e+50 best solution, best possible -50557.647 (2611.39 seconds)
Cbc0010I After 400 nodes, 200 on tree, 1e+50 best solution, best possible -50557.647 (2657.11 seconds)
Cbc0010I After 500 nodes, 250 on tree, 1e+50 best solution, best possible -50557.647 (2702.41 seconds)
Cbc0010I After 600 nodes, 300 on tree, 1e+50 best solution, best possible -50557.647 (2747.83 seconds)
Cbc0010I After 700 nodes, 350 on tree, 1e+50 best solution, best possible -50557.647 (2793.34 seconds)
Cbc0010I After 800 nodes, 400 on tree, 1e+50 best solution, best possible -50557.647 (2839.17 seconds)
Cbc0010I After 900 nodes, 450 on tree, 1e+50 best solution, best possible -50557.647 (2884.69 seconds)
Cbc0010I After 1000 nodes, 500 on tree, 1e+50 best solution, best possible -50557.647 (2929.57 seconds)
Cbc0010I After 1100 nodes, 550 on tree, 1e+50 best solution, best possible -50557.647 (2973.53 seconds)
Cbc0010I After 1200 nodes, 600 on tree, 1e+50 best solution, best possible -50557.647 (3016.88 seconds)
Cbc0010I After 1300 nodes, 650 on tree, 1e+50 best solution, best possible -50557.647 (3060.16 seconds)
Cbc0010I After 1400 nodes, 700 on tree, 1e+50 best solution, best possible -50557.647 (3111.27 seconds)
Cbc0010I After 1500 nodes, 750 on tree, 1e+50 best solution, best possible -50557.647 (3163.44 seconds)
Cbc0010I After 1600 nodes, 800 on tree, 1e+50 best solution, best possible -50557.647 (3216.70 seconds)
Cbc0010I After 1700 nodes, 850 on tree, 1e+50 best solution, best possible -50557.647 (3270.18 seconds)
Cbc0010I After 1800 nodes, 900 on tree, 1e+50 best solution, best possible -50557.647 (3319.89 seconds)
Cbc0010I After 1900 nodes, 950 on tree, 1e+50 best solution, best possible -50557.647 (3369.36 seconds)
Cbc0010I After 2000 nodes, 1000 on tree, 1e+50 best solution, best possible -50557.647 (3421.40 seconds)
Cbc0010I After 2100 nodes, 1050 on tree, 1e+50 best solution, best possible -50557.647 (3474.22 seconds)
Cbc0010I After 2200 nodes, 1100 on tree, 1e+50 best solution, best possible -50557.647 (3527.41 seconds)
Cbc0010I After 2300 nodes, 1150 on tree, 1e+50 best solution, best possible -50557.647 (3578.17 seconds)
Cbc0020I Exiting on maximum time
Cbc0005I Partial search - best objective 1e+50 (best possible -50557.647), took 3807451 iterations and 2338 nodes (3616.99 seconds)
Cbc0035I Maximum depth 1169, 0 variables fixed on reduced cost

 	"Not finished"

Linearization cuts added at root node:      13002
Linearization cuts added in total:          13002  (separation time: 0.074619s)
Total solve time:                         3617.63s (3617.63s in branch-and-bound)
Lower bound:                             -50557.6
Upper bound:                             -15218.9  (gap: 69.90%)
Branch-and-bound nodes:                      2338
Stats: /tmp/jl_xTyHm1/model.nl 3000 [var] 1000 [int] 3001 [con] 3002 [aux]  13002 [root]    13002 [tot] 0.074619 [sep]  3617.63 [time]  3617.64 [bb]        -5.055765e+04 [lower]        -1.521893e+04 [upper]    2338 [nodes]
Performance of                           FBBT:	    105.976s,     4616 runs. fix:          0 shrnk:    252.488 ubd:          0 2ubd:          1 infeas:          0
Performance of                           OBBT:	    431.275s,        6 runs. fix:          0 shrnk:          0 ubd:          0 2ubd:          1 infeas:          0
primal_bound = -15218.930656498413, dual_bound = 0.0, gap = 100.0, time = 3644.04
